(set-info :smt-lib-version 2.6)
(set-logic QF_NRA)
(set-info :source |
Generated by: Michele Chiari, Francesco Pontiggia
Generated on: 2024-02-02
Generator: POMC
Application: Termination analysis of probabilistic Pushdown Automata
Target solver: Z3
Benchmarks generated by the tool POMC to analyze the termination
probability of a probabilistic Pushdown Automaton (pPDA). The benchmark
contains the system of polynomial equations encoding the probability.
The pPDA has been automatically generated from the following
probabilistic program, originally written by Tobias Winkler:
main() {
  f(0, 25);
}

f(u8 n, u8 m) {
  bool x;
  x = true {(n+1) : (n+2)} false;
  if (x) {
    f((n+1) % m, m);
    f((n+1) % m, m);
  } else { }
}
|)
(set-info :license "https://creativecommons.org/licenses/by/4.0/")
(set-info :category "industrial")
(set-info :status sat)

(declare-fun |(293,198)!400| () Real)
(declare-fun |(292,200)!250| () Real)
(declare-fun |(317,198)!401| () Real)
(declare-fun |(318,198)!403| () Real)
(declare-fun |(11,190)!402| () Real)
(declare-fun |(13,190)!404| () Real)
(declare-fun |(274,190)!406| () Real)
(declare-fun |(14,185)!405| () Real)
(declare-fun |(16,185)!407| () Real)
(declare-fun |(265,185)!409| () Real)
(declare-fun |(17,180)!408| () Real)
(declare-fun |(19,180)!410| () Real)
(declare-fun |(256,180)!412| () Real)
(declare-fun |(20,175)!411| () Real)
(declare-fun |(22,175)!413| () Real)
(declare-fun |(247,175)!415| () Real)
(declare-fun |(23,170)!414| () Real)
(declare-fun |(25,170)!416| () Real)
(declare-fun |(238,170)!418| () Real)
(declare-fun |(26,165)!417| () Real)
(declare-fun |(28,165)!419| () Real)
(declare-fun |(229,165)!421| () Real)
(declare-fun |(29,160)!420| () Real)
(declare-fun |(31,160)!422| () Real)
(declare-fun |(220,160)!424| () Real)
(declare-fun |(32,155)!423| () Real)
(declare-fun |(34,155)!425| () Real)
(declare-fun |(211,155)!427| () Real)
(declare-fun |(35,150)!426| () Real)
(declare-fun |(37,150)!428| () Real)
(declare-fun |(202,150)!430| () Real)
(declare-fun |(38,145)!429| () Real)
(declare-fun |(40,145)!431| () Real)
(declare-fun |(193,145)!433| () Real)
(declare-fun |(41,140)!432| () Real)
(declare-fun |(43,140)!434| () Real)
(declare-fun |(184,140)!436| () Real)
(declare-fun |(44,135)!435| () Real)
(declare-fun |(46,135)!437| () Real)
(declare-fun |(175,135)!439| () Real)
(declare-fun |(47,130)!438| () Real)
(declare-fun |(49,130)!440| () Real)
(declare-fun |(166,130)!442| () Real)
(declare-fun |(50,125)!441| () Real)
(declare-fun |(52,125)!443| () Real)
(declare-fun |(157,125)!445| () Real)
(declare-fun |(53,120)!444| () Real)
(declare-fun |(55,120)!446| () Real)
(declare-fun |(148,120)!448| () Real)
(declare-fun |(56,115)!447| () Real)
(declare-fun |(58,115)!449| () Real)
(declare-fun |(139,115)!451| () Real)
(declare-fun |(59,110)!450| () Real)
(declare-fun |(61,110)!452| () Real)
(declare-fun |(130,110)!454| () Real)
(declare-fun |(62,105)!453| () Real)
(declare-fun |(64,105)!455| () Real)
(declare-fun |(121,105)!457| () Real)
(declare-fun |(65,100)!456| () Real)
(declare-fun |(67,100)!458| () Real)
(declare-fun |(112,100)!460| () Real)
(declare-fun |(68,95)!459| () Real)
(declare-fun |(70,95)!461| () Real)
(declare-fun |(103,95)!463| () Real)
(declare-fun |(71,90)!462| () Real)
(declare-fun |(73,90)!464| () Real)
(declare-fun |(94,90)!466| () Real)
(declare-fun |(74,85)!465| () Real)
(declare-fun |(76,85)!467| () Real)
(declare-fun |(87,85)!469| () Real)
(declare-fun |(77,82)!468| () Real)
(declare-fun |(409,82)!470| () Real)
(declare-fun |(410,82)!471| () Real)
(declare-fun |(5,200)!399| () Real)
(declare-fun |(302,203)!472| () Real)
(declare-fun |(313,203)!473| () Real)
(declare-fun |(314,203)!475| () Real)
(declare-fun |(8,195)!474| () Real)
(declare-fun |(10,195)!476| () Real)
(declare-fun |(283,195)!477| () Real)
(declare-fun |(284,193)!478| () Real)
(declare-fun |(321,193)!479| () Real)
(declare-fun |(322,193)!480| () Real)
(declare-fun |(275,188)!481| () Real)
(declare-fun |(325,188)!482| () Real)
(declare-fun |(326,188)!483| () Real)
(declare-fun |(266,183)!484| () Real)
(declare-fun |(329,183)!485| () Real)
(declare-fun |(330,183)!486| () Real)
(declare-fun |(257,178)!487| () Real)
(declare-fun |(333,178)!488| () Real)
(declare-fun |(334,178)!489| () Real)
(declare-fun |(248,173)!490| () Real)
(declare-fun |(337,173)!491| () Real)
(declare-fun |(338,173)!492| () Real)
(declare-fun |(239,168)!493| () Real)
(declare-fun |(341,168)!494| () Real)
(declare-fun |(342,168)!495| () Real)
(declare-fun |(230,163)!496| () Real)
(declare-fun |(345,163)!497| () Real)
(declare-fun |(346,163)!498| () Real)
(declare-fun |(221,158)!499| () Real)
(declare-fun |(349,158)!500| () Real)
(declare-fun |(350,158)!501| () Real)
(declare-fun |(212,153)!502| () Real)
(declare-fun |(353,153)!503| () Real)
(declare-fun |(354,153)!504| () Real)
(declare-fun |(203,148)!505| () Real)
(declare-fun |(357,148)!506| () Real)
(declare-fun |(358,148)!507| () Real)
(declare-fun |(194,143)!508| () Real)
(declare-fun |(361,143)!509| () Real)
(declare-fun |(362,143)!510| () Real)
(declare-fun |(185,138)!511| () Real)
(declare-fun |(365,138)!512| () Real)
(declare-fun |(366,138)!513| () Real)
(declare-fun |(176,133)!514| () Real)
(declare-fun |(369,133)!515| () Real)
(declare-fun |(370,133)!516| () Real)
(declare-fun |(167,128)!517| () Real)
(declare-fun |(373,128)!518| () Real)
(declare-fun |(374,128)!519| () Real)
(declare-fun |(158,123)!520| () Real)
(declare-fun |(377,123)!521| () Real)
(declare-fun |(378,123)!522| () Real)
(declare-fun |(149,118)!523| () Real)
(declare-fun |(381,118)!524| () Real)
(declare-fun |(382,118)!525| () Real)
(declare-fun |(140,113)!526| () Real)
(declare-fun |(385,113)!527| () Real)
(declare-fun |(386,113)!528| () Real)
(declare-fun |(131,108)!529| () Real)
(declare-fun |(389,108)!530| () Real)
(declare-fun |(390,108)!531| () Real)
(declare-fun |(122,103)!532| () Real)
(declare-fun |(393,103)!533| () Real)
(declare-fun |(394,103)!534| () Real)
(declare-fun |(113,98)!535| () Real)
(declare-fun |(397,98)!536| () Real)
(declare-fun |(398,98)!537| () Real)
(declare-fun |(104,93)!538| () Real)
(declare-fun |(401,93)!539| () Real)
(declare-fun |(402,93)!540| () Real)
(declare-fun |(95,88)!541| () Real)
(declare-fun |(405,88)!542| () Real)
(declare-fun |(406,88)!543| () Real)
(declare-fun |(88,83)!544| () Real)
(declare-fun |(89,83)!545| () Real)
(declare-fun |(306,83)!546| () Real)
(declare-fun |(283,200)!251| () Real)
(declare-fun |(274,200)!252| () Real)
(declare-fun |(265,200)!253| () Real)
(declare-fun |(256,200)!254| () Real)
(declare-fun |(247,200)!255| () Real)
(declare-fun |(238,200)!256| () Real)
(declare-fun |(229,200)!257| () Real)
(declare-fun |(220,200)!258| () Real)
(declare-fun |(211,200)!259| () Real)
(declare-fun |(202,200)!260| () Real)
(declare-fun |(193,200)!261| () Real)
(declare-fun |(184,200)!262| () Real)
(declare-fun |(175,200)!263| () Real)
(declare-fun |(166,200)!264| () Real)
(declare-fun |(157,200)!265| () Real)
(declare-fun |(148,200)!266| () Real)
(declare-fun |(139,200)!267| () Real)
(declare-fun |(130,200)!268| () Real)
(declare-fun |(121,200)!269| () Real)
(declare-fun |(112,200)!270| () Real)
(declare-fun |(103,200)!271| () Real)
(declare-fun |(94,200)!272| () Real)
(declare-fun |(87,200)!273| () Real)
(declare-fun |(306,200)!274| () Real)
(declare-fun |(89,200)!275| () Real)
(declare-fun |(88,200)!276| () Real)
(declare-fun |(406,200)!277| () Real)
(declare-fun |(405,200)!278| () Real)
(declare-fun |(95,200)!279| () Real)
(declare-fun |(402,200)!280| () Real)
(declare-fun |(401,200)!281| () Real)
(declare-fun |(104,200)!282| () Real)
(declare-fun |(398,200)!283| () Real)
(declare-fun |(397,200)!284| () Real)
(declare-fun |(113,200)!285| () Real)
(declare-fun |(394,200)!286| () Real)
(declare-fun |(393,200)!287| () Real)
(declare-fun |(122,200)!288| () Real)
(declare-fun |(390,200)!289| () Real)
(declare-fun |(389,200)!290| () Real)
(declare-fun |(131,200)!291| () Real)
(declare-fun |(386,200)!292| () Real)
(declare-fun |(385,200)!293| () Real)
(declare-fun |(140,200)!294| () Real)
(declare-fun |(382,200)!295| () Real)
(declare-fun |(381,200)!296| () Real)
(declare-fun |(149,200)!297| () Real)
(declare-fun |(378,200)!298| () Real)
(declare-fun |(377,200)!299| () Real)
(declare-fun |(158,200)!300| () Real)
(declare-fun |(374,200)!301| () Real)
(declare-fun |(373,200)!302| () Real)
(declare-fun |(167,200)!303| () Real)
(declare-fun |(370,200)!304| () Real)
(declare-fun |(369,200)!305| () Real)
(declare-fun |(176,200)!306| () Real)
(declare-fun |(366,200)!307| () Real)
(declare-fun |(365,200)!308| () Real)
(declare-fun |(185,200)!309| () Real)
(declare-fun |(362,200)!310| () Real)
(declare-fun |(361,200)!311| () Real)
(declare-fun |(194,200)!312| () Real)
(declare-fun |(358,200)!313| () Real)
(declare-fun |(357,200)!314| () Real)
(declare-fun |(203,200)!315| () Real)
(declare-fun |(354,200)!316| () Real)
(declare-fun |(353,200)!317| () Real)
(declare-fun |(212,200)!318| () Real)
(declare-fun |(350,200)!319| () Real)
(declare-fun |(349,200)!320| () Real)
(declare-fun |(221,200)!321| () Real)
(declare-fun |(346,200)!322| () Real)
(declare-fun |(345,200)!323| () Real)
(declare-fun |(230,200)!324| () Real)
(declare-fun |(342,200)!325| () Real)
(declare-fun |(341,200)!326| () Real)
(declare-fun |(239,200)!327| () Real)
(declare-fun |(338,200)!328| () Real)
(declare-fun |(337,200)!329| () Real)
(declare-fun |(248,200)!330| () Real)
(declare-fun |(334,200)!331| () Real)
(declare-fun |(333,200)!332| () Real)
(declare-fun |(257,200)!333| () Real)
(declare-fun |(330,200)!334| () Real)
(declare-fun |(329,200)!335| () Real)
(declare-fun |(266,200)!336| () Real)
(declare-fun |(326,200)!337| () Real)
(declare-fun |(325,200)!338| () Real)
(declare-fun |(275,200)!339| () Real)
(declare-fun |(322,200)!340| () Real)
(declare-fun |(321,200)!341| () Real)
(declare-fun |(284,200)!342| () Real)
(declare-fun |(318,200)!343| () Real)
(declare-fun |(317,200)!344| () Real)
(declare-fun |(293,200)!345| () Real)
(declare-fun |(314,200)!346| () Real)
(declare-fun |(313,200)!347| () Real)
(declare-fun |(302,200)!348| () Real)
(declare-fun |(410,200)!349| () Real)
(declare-fun |(409,200)!350| () Real)
(declare-fun |(77,200)!351| () Real)
(declare-fun |(76,200)!352| () Real)
(declare-fun |(74,200)!353| () Real)
(declare-fun |(73,200)!354| () Real)
(declare-fun |(71,200)!355| () Real)
(declare-fun |(70,200)!356| () Real)
(declare-fun |(68,200)!357| () Real)
(declare-fun |(67,200)!358| () Real)
(declare-fun |(65,200)!359| () Real)
(declare-fun |(64,200)!360| () Real)
(declare-fun |(62,200)!361| () Real)
(declare-fun |(61,200)!362| () Real)
(declare-fun |(59,200)!363| () Real)
(declare-fun |(58,200)!364| () Real)
(declare-fun |(56,200)!365| () Real)
(declare-fun |(55,200)!366| () Real)
(declare-fun |(53,200)!367| () Real)
(declare-fun |(52,200)!368| () Real)
(declare-fun |(50,200)!369| () Real)
(declare-fun |(49,200)!370| () Real)
(declare-fun |(47,200)!371| () Real)
(declare-fun |(46,200)!372| () Real)
(declare-fun |(44,200)!373| () Real)
(declare-fun |(43,200)!374| () Real)
(declare-fun |(41,200)!375| () Real)
(declare-fun |(40,200)!376| () Real)
(declare-fun |(38,200)!377| () Real)
(declare-fun |(37,200)!378| () Real)
(declare-fun |(35,200)!379| () Real)
(declare-fun |(34,200)!380| () Real)
(declare-fun |(32,200)!381| () Real)
(declare-fun |(31,200)!382| () Real)
(declare-fun |(29,200)!383| () Real)
(declare-fun |(28,200)!384| () Real)
(declare-fun |(26,200)!385| () Real)
(declare-fun |(25,200)!386| () Real)
(declare-fun |(23,200)!387| () Real)
(declare-fun |(22,200)!388| () Real)
(declare-fun |(20,200)!389| () Real)
(declare-fun |(19,200)!390| () Real)
(declare-fun |(17,200)!391| () Real)
(declare-fun |(16,200)!392| () Real)
(declare-fun |(14,200)!393| () Real)
(declare-fun |(13,200)!394| () Real)
(declare-fun |(11,200)!395| () Real)
(declare-fun |(10,200)!396| () Real)
(declare-fun |(8,200)!397| () Real)
(declare-fun |(7,200)!398| () Real)
(assert (>= |(292,200)!250| (* 1.0 |(293,198)!400| 1.0)))
(assert (>= |(292,200)!250| 0.0))
(assert (>= |(293,198)!400|
    (+ (* (/ 1.0 4.0) 1.0 1.0) (* (/ 3.0 4.0) 1.0 |(317,198)!401|))))
(assert (>= |(293,198)!400| 0.0))
(assert (>= |(317,198)!401| (* 1.0 |(11,190)!402| |(318,198)!403|)))
(assert (>= |(317,198)!401| 0.0))
(assert (>= |(11,190)!402|
    (+ (* (/ 1.0 5.0) 1.0 1.0) (* (/ 4.0 5.0) 1.0 |(13,190)!404|))))
(assert (>= |(11,190)!402| 0.0))
(assert (>= |(13,190)!404| (* 1.0 |(14,185)!405| |(274,190)!406|)))
(assert (>= |(13,190)!404| 0.0))
(assert (>= |(14,185)!405|
    (+ (* (/ 1.0 6.0) 1.0 1.0) (* (/ 5.0 6.0) 1.0 |(16,185)!407|))))
(assert (>= |(14,185)!405| 0.0))
(assert (>= |(16,185)!407| (* 1.0 |(17,180)!408| |(265,185)!409|)))
(assert (>= |(16,185)!407| 0.0))
(assert (>= |(17,180)!408|
    (+ (* (/ 1.0 7.0) 1.0 1.0) (* (/ 6.0 7.0) 1.0 |(19,180)!410|))))
(assert (>= |(17,180)!408| 0.0))
(assert (>= |(19,180)!410| (* 1.0 |(20,175)!411| |(256,180)!412|)))
(assert (>= |(19,180)!410| 0.0))
(assert (>= |(20,175)!411|
    (+ (* (/ 1.0 8.0) 1.0 1.0) (* (/ 7.0 8.0) 1.0 |(22,175)!413|))))
(assert (>= |(20,175)!411| 0.0))
(assert (>= |(22,175)!413| (* 1.0 |(23,170)!414| |(247,175)!415|)))
(assert (>= |(22,175)!413| 0.0))
(assert (>= |(23,170)!414|
    (+ (* (/ 1.0 9.0) 1.0 1.0) (* (/ 8.0 9.0) 1.0 |(25,170)!416|))))
(assert (>= |(23,170)!414| 0.0))
(assert (>= |(25,170)!416| (* 1.0 |(26,165)!417| |(238,170)!418|)))
(assert (>= |(25,170)!416| 0.0))
(assert (>= |(26,165)!417|
    (+ (* (/ 1.0 10.0) 1.0 1.0) (* (/ 9.0 10.0) 1.0 |(28,165)!419|))))
(assert (>= |(26,165)!417| 0.0))
(assert (>= |(28,165)!419| (* 1.0 |(29,160)!420| |(229,165)!421|)))
(assert (>= |(28,165)!419| 0.0))
(assert (>= |(29,160)!420|
    (+ (* (/ 1.0 11.0) 1.0 1.0) (* (/ 10.0 11.0) 1.0 |(31,160)!422|))))
(assert (>= |(29,160)!420| 0.0))
(assert (>= |(31,160)!422| (* 1.0 |(32,155)!423| |(220,160)!424|)))
(assert (>= |(31,160)!422| 0.0))
(assert (>= |(32,155)!423|
    (+ (* (/ 1.0 12.0) 1.0 1.0) (* (/ 11.0 12.0) 1.0 |(34,155)!425|))))
(assert (>= |(32,155)!423| 0.0))
(assert (>= |(34,155)!425| (* 1.0 |(35,150)!426| |(211,155)!427|)))
(assert (>= |(34,155)!425| 0.0))
(assert (>= |(35,150)!426|
    (+ (* (/ 1.0 13.0) 1.0 1.0) (* (/ 12.0 13.0) 1.0 |(37,150)!428|))))
(assert (>= |(35,150)!426| 0.0))
(assert (>= |(37,150)!428| (* 1.0 |(38,145)!429| |(202,150)!430|)))
(assert (>= |(37,150)!428| 0.0))
(assert (>= |(38,145)!429|
    (+ (* (/ 1.0 14.0) 1.0 1.0) (* (/ 13.0 14.0) 1.0 |(40,145)!431|))))
(assert (>= |(38,145)!429| 0.0))
(assert (>= |(40,145)!431| (* 1.0 |(41,140)!432| |(193,145)!433|)))
(assert (>= |(40,145)!431| 0.0))
(assert (>= |(41,140)!432|
    (+ (* (/ 1.0 15.0) 1.0 1.0) (* (/ 14.0 15.0) 1.0 |(43,140)!434|))))
(assert (>= |(41,140)!432| 0.0))
(assert (>= |(43,140)!434| (* 1.0 |(44,135)!435| |(184,140)!436|)))
(assert (>= |(43,140)!434| 0.0))
(assert (>= |(44,135)!435|
    (+ (* (/ 1.0 16.0) 1.0 1.0) (* (/ 15.0 16.0) 1.0 |(46,135)!437|))))
(assert (>= |(44,135)!435| 0.0))
(assert (>= |(46,135)!437| (* 1.0 |(47,130)!438| |(175,135)!439|)))
(assert (>= |(46,135)!437| 0.0))
(assert (>= |(47,130)!438|
    (+ (* (/ 1.0 17.0) 1.0 1.0) (* (/ 16.0 17.0) 1.0 |(49,130)!440|))))
(assert (>= |(47,130)!438| 0.0))
(assert (>= |(49,130)!440| (* 1.0 |(50,125)!441| |(166,130)!442|)))
(assert (>= |(49,130)!440| 0.0))
(assert (>= |(50,125)!441|
    (+ (* (/ 1.0 18.0) 1.0 1.0) (* (/ 17.0 18.0) 1.0 |(52,125)!443|))))
(assert (>= |(50,125)!441| 0.0))
(assert (>= |(52,125)!443| (* 1.0 |(53,120)!444| |(157,125)!445|)))
(assert (>= |(52,125)!443| 0.0))
(assert (>= |(53,120)!444|
    (+ (* (/ 1.0 19.0) 1.0 1.0) (* (/ 18.0 19.0) 1.0 |(55,120)!446|))))
(assert (>= |(53,120)!444| 0.0))
(assert (>= |(55,120)!446| (* 1.0 |(56,115)!447| |(148,120)!448|)))
(assert (>= |(55,120)!446| 0.0))
(assert (>= |(56,115)!447|
    (+ (* (/ 1.0 20.0) 1.0 1.0) (* (/ 19.0 20.0) 1.0 |(58,115)!449|))))
(assert (>= |(56,115)!447| 0.0))
(assert (>= |(58,115)!449| (* 1.0 |(59,110)!450| |(139,115)!451|)))
(assert (>= |(58,115)!449| 0.0))
(assert (>= |(59,110)!450|
    (+ (* (/ 1.0 21.0) 1.0 1.0) (* (/ 20.0 21.0) 1.0 |(61,110)!452|))))
(assert (>= |(59,110)!450| 0.0))
(assert (>= |(61,110)!452| (* 1.0 |(62,105)!453| |(130,110)!454|)))
(assert (>= |(61,110)!452| 0.0))
(assert (>= |(62,105)!453|
    (+ (* (/ 1.0 22.0) 1.0 1.0) (* (/ 21.0 22.0) 1.0 |(64,105)!455|))))
(assert (>= |(62,105)!453| 0.0))
(assert (>= |(64,105)!455| (* 1.0 |(65,100)!456| |(121,105)!457|)))
(assert (>= |(64,105)!455| 0.0))
(assert (>= |(65,100)!456|
    (+ (* (/ 1.0 23.0) 1.0 1.0) (* (/ 22.0 23.0) 1.0 |(67,100)!458|))))
(assert (>= |(65,100)!456| 0.0))
(assert (>= |(67,100)!458| (* 1.0 |(68,95)!459| |(112,100)!460|)))
(assert (>= |(67,100)!458| 0.0))
(assert (>= |(68,95)!459|
    (+ (* (/ 1.0 24.0) 1.0 1.0) (* (/ 23.0 24.0) 1.0 |(70,95)!461|))))
(assert (>= |(68,95)!459| 0.0))
(assert (>= |(70,95)!461| (* 1.0 |(71,90)!462| |(103,95)!463|)))
(assert (>= |(70,95)!461| 0.0))
(assert (>= |(71,90)!462|
    (+ (* (/ 1.0 25.0) 1.0 1.0) (* (/ 24.0 25.0) 1.0 |(73,90)!464|))))
(assert (>= |(71,90)!462| 0.0))
(assert (>= |(73,90)!464| (* 1.0 |(74,85)!465| |(94,90)!466|)))
(assert (>= |(73,90)!464| 0.0))
(assert (>= |(74,85)!465|
    (+ (* (/ 1.0 26.0) 1.0 1.0) (* (/ 25.0 26.0) 1.0 |(76,85)!467|))))
(assert (>= |(74,85)!465| 0.0))
(assert (>= |(76,85)!467| (* 1.0 |(77,82)!468| |(87,85)!469|)))
(assert (>= |(76,85)!467| 0.0))
(assert (>= |(77,82)!468|
    (+ (* (/ 1.0 2.0) 1.0 1.0) (* (/ 1.0 2.0) 1.0 |(409,82)!470|))))
(assert (>= |(77,82)!468| 0.0))
(assert (>= |(409,82)!470| (* 1.0 |(5,200)!399| |(410,82)!471|)))
(assert (>= |(409,82)!470| 0.0))
(assert (>= |(410,82)!471| (* 1.0 |(302,203)!472| 1.0)))
(assert (>= |(410,82)!471| 0.0))
(assert (>= |(302,203)!472|
    (+ (* (/ 1.0 3.0) 1.0 1.0) (* (/ 2.0 3.0) 1.0 |(313,203)!473|))))
(assert (>= |(302,203)!472| 0.0))
(assert (>= |(313,203)!473| (* 1.0 |(8,195)!474| |(314,203)!475|)))
(assert (>= |(313,203)!473| 0.0))
(assert (>= |(8,195)!474|
    (+ (* (/ 1.0 4.0) 1.0 1.0) (* (/ 3.0 4.0) 1.0 |(10,195)!476|))))
(assert (>= |(8,195)!474| 0.0))
(assert (>= |(10,195)!476| (* 1.0 |(11,190)!402| |(283,195)!477|)))
(assert (>= |(10,195)!476| 0.0))
(assert (>= |(283,195)!477| (* 1.0 |(284,193)!478| 1.0)))
(assert (>= |(283,195)!477| 0.0))
(assert (>= |(284,193)!478|
    (+ (* (/ 1.0 5.0) 1.0 1.0) (* (/ 4.0 5.0) 1.0 |(321,193)!479|))))
(assert (>= |(284,193)!478| 0.0))
(assert (>= |(321,193)!479| (* 1.0 |(14,185)!405| |(322,193)!480|)))
(assert (>= |(321,193)!479| 0.0))
(assert (>= |(322,193)!480| (* 1.0 |(275,188)!481| 1.0)))
(assert (>= |(322,193)!480| 0.0))
(assert (>= |(275,188)!481|
    (+ (* (/ 1.0 6.0) 1.0 1.0) (* (/ 5.0 6.0) 1.0 |(325,188)!482|))))
(assert (>= |(275,188)!481| 0.0))
(assert (>= |(325,188)!482| (* 1.0 |(17,180)!408| |(326,188)!483|)))
(assert (>= |(325,188)!482| 0.0))
(assert (>= |(326,188)!483| (* 1.0 |(266,183)!484| 1.0)))
(assert (>= |(326,188)!483| 0.0))
(assert (>= |(266,183)!484|
    (+ (* (/ 1.0 7.0) 1.0 1.0) (* (/ 6.0 7.0) 1.0 |(329,183)!485|))))
(assert (>= |(266,183)!484| 0.0))
(assert (>= |(329,183)!485| (* 1.0 |(20,175)!411| |(330,183)!486|)))
(assert (>= |(329,183)!485| 0.0))
(assert (>= |(330,183)!486| (* 1.0 |(257,178)!487| 1.0)))
(assert (>= |(330,183)!486| 0.0))
(assert (>= |(257,178)!487|
    (+ (* (/ 1.0 8.0) 1.0 1.0) (* (/ 7.0 8.0) 1.0 |(333,178)!488|))))
(assert (>= |(257,178)!487| 0.0))
(assert (>= |(333,178)!488| (* 1.0 |(23,170)!414| |(334,178)!489|)))
(assert (>= |(333,178)!488| 0.0))
(assert (>= |(334,178)!489| (* 1.0 |(248,173)!490| 1.0)))
(assert (>= |(334,178)!489| 0.0))
(assert (>= |(248,173)!490|
    (+ (* (/ 1.0 9.0) 1.0 1.0) (* (/ 8.0 9.0) 1.0 |(337,173)!491|))))
(assert (>= |(248,173)!490| 0.0))
(assert (>= |(337,173)!491| (* 1.0 |(26,165)!417| |(338,173)!492|)))
(assert (>= |(337,173)!491| 0.0))
(assert (>= |(338,173)!492| (* 1.0 |(239,168)!493| 1.0)))
(assert (>= |(338,173)!492| 0.0))
(assert (>= |(239,168)!493|
    (+ (* (/ 1.0 10.0) 1.0 1.0) (* (/ 9.0 10.0) 1.0 |(341,168)!494|))))
(assert (>= |(239,168)!493| 0.0))
(assert (>= |(341,168)!494| (* 1.0 |(29,160)!420| |(342,168)!495|)))
(assert (>= |(341,168)!494| 0.0))
(assert (>= |(342,168)!495| (* 1.0 |(230,163)!496| 1.0)))
(assert (>= |(342,168)!495| 0.0))
(assert (>= |(230,163)!496|
    (+ (* (/ 1.0 11.0) 1.0 1.0) (* (/ 10.0 11.0) 1.0 |(345,163)!497|))))
(assert (>= |(230,163)!496| 0.0))
(assert (>= |(345,163)!497| (* 1.0 |(32,155)!423| |(346,163)!498|)))
(assert (>= |(345,163)!497| 0.0))
(assert (>= |(346,163)!498| (* 1.0 |(221,158)!499| 1.0)))
(assert (>= |(346,163)!498| 0.0))
(assert (>= |(221,158)!499|
    (+ (* (/ 1.0 12.0) 1.0 1.0) (* (/ 11.0 12.0) 1.0 |(349,158)!500|))))
(assert (>= |(221,158)!499| 0.0))
(assert (>= |(349,158)!500| (* 1.0 |(35,150)!426| |(350,158)!501|)))
(assert (>= |(349,158)!500| 0.0))
(assert (>= |(350,158)!501| (* 1.0 |(212,153)!502| 1.0)))
(assert (>= |(350,158)!501| 0.0))
(assert (>= |(212,153)!502|
    (+ (* (/ 1.0 13.0) 1.0 1.0) (* (/ 12.0 13.0) 1.0 |(353,153)!503|))))
(assert (>= |(212,153)!502| 0.0))
(assert (>= |(353,153)!503| (* 1.0 |(38,145)!429| |(354,153)!504|)))
(assert (>= |(353,153)!503| 0.0))
(assert (>= |(354,153)!504| (* 1.0 |(203,148)!505| 1.0)))
(assert (>= |(354,153)!504| 0.0))
(assert (>= |(203,148)!505|
    (+ (* (/ 1.0 14.0) 1.0 1.0) (* (/ 13.0 14.0) 1.0 |(357,148)!506|))))
(assert (>= |(203,148)!505| 0.0))
(assert (>= |(357,148)!506| (* 1.0 |(41,140)!432| |(358,148)!507|)))
(assert (>= |(357,148)!506| 0.0))
(assert (>= |(358,148)!507| (* 1.0 |(194,143)!508| 1.0)))
(assert (>= |(358,148)!507| 0.0))
(assert (>= |(194,143)!508|
    (+ (* (/ 1.0 15.0) 1.0 1.0) (* (/ 14.0 15.0) 1.0 |(361,143)!509|))))
(assert (>= |(194,143)!508| 0.0))
(assert (>= |(361,143)!509| (* 1.0 |(44,135)!435| |(362,143)!510|)))
(assert (>= |(361,143)!509| 0.0))
(assert (>= |(362,143)!510| (* 1.0 |(185,138)!511| 1.0)))
(assert (>= |(362,143)!510| 0.0))
(assert (>= |(185,138)!511|
    (+ (* (/ 1.0 16.0) 1.0 1.0) (* (/ 15.0 16.0) 1.0 |(365,138)!512|))))
(assert (>= |(185,138)!511| 0.0))
(assert (>= |(365,138)!512| (* 1.0 |(47,130)!438| |(366,138)!513|)))
(assert (>= |(365,138)!512| 0.0))
(assert (>= |(366,138)!513| (* 1.0 |(176,133)!514| 1.0)))
(assert (>= |(366,138)!513| 0.0))
(assert (>= |(176,133)!514|
    (+ (* (/ 1.0 17.0) 1.0 1.0) (* (/ 16.0 17.0) 1.0 |(369,133)!515|))))
(assert (>= |(176,133)!514| 0.0))
(assert (>= |(369,133)!515| (* 1.0 |(50,125)!441| |(370,133)!516|)))
(assert (>= |(369,133)!515| 0.0))
(assert (>= |(370,133)!516| (* 1.0 |(167,128)!517| 1.0)))
(assert (>= |(370,133)!516| 0.0))
(assert (>= |(167,128)!517|
    (+ (* (/ 1.0 18.0) 1.0 1.0) (* (/ 17.0 18.0) 1.0 |(373,128)!518|))))
(assert (>= |(167,128)!517| 0.0))
(assert (>= |(373,128)!518| (* 1.0 |(53,120)!444| |(374,128)!519|)))
(assert (>= |(373,128)!518| 0.0))
(assert (>= |(374,128)!519| (* 1.0 |(158,123)!520| 1.0)))
(assert (>= |(374,128)!519| 0.0))
(assert (>= |(158,123)!520|
    (+ (* (/ 1.0 19.0) 1.0 1.0) (* (/ 18.0 19.0) 1.0 |(377,123)!521|))))
(assert (>= |(158,123)!520| 0.0))
(assert (>= |(377,123)!521| (* 1.0 |(56,115)!447| |(378,123)!522|)))
(assert (>= |(377,123)!521| 0.0))
(assert (>= |(378,123)!522| (* 1.0 |(149,118)!523| 1.0)))
(assert (>= |(378,123)!522| 0.0))
(assert (>= |(149,118)!523|
    (+ (* (/ 1.0 20.0) 1.0 1.0) (* (/ 19.0 20.0) 1.0 |(381,118)!524|))))
(assert (>= |(149,118)!523| 0.0))
(assert (>= |(381,118)!524| (* 1.0 |(59,110)!450| |(382,118)!525|)))
(assert (>= |(381,118)!524| 0.0))
(assert (>= |(382,118)!525| (* 1.0 |(140,113)!526| 1.0)))
(assert (>= |(382,118)!525| 0.0))
(assert (>= |(140,113)!526|
    (+ (* (/ 1.0 21.0) 1.0 1.0) (* (/ 20.0 21.0) 1.0 |(385,113)!527|))))
(assert (>= |(140,113)!526| 0.0))
(assert (>= |(385,113)!527| (* 1.0 |(62,105)!453| |(386,113)!528|)))
(assert (>= |(385,113)!527| 0.0))
(assert (>= |(386,113)!528| (* 1.0 |(131,108)!529| 1.0)))
(assert (>= |(386,113)!528| 0.0))
(assert (>= |(131,108)!529|
    (+ (* (/ 1.0 22.0) 1.0 1.0) (* (/ 21.0 22.0) 1.0 |(389,108)!530|))))
(assert (>= |(131,108)!529| 0.0))
(assert (>= |(389,108)!530| (* 1.0 |(65,100)!456| |(390,108)!531|)))
(assert (>= |(389,108)!530| 0.0))
(assert (>= |(390,108)!531| (* 1.0 |(122,103)!532| 1.0)))
(assert (>= |(390,108)!531| 0.0))
(assert (>= |(122,103)!532|
    (+ (* (/ 1.0 23.0) 1.0 1.0) (* (/ 22.0 23.0) 1.0 |(393,103)!533|))))
(assert (>= |(122,103)!532| 0.0))
(assert (>= |(393,103)!533| (* 1.0 |(68,95)!459| |(394,103)!534|)))
(assert (>= |(393,103)!533| 0.0))
(assert (>= |(394,103)!534| (* 1.0 |(113,98)!535| 1.0)))
(assert (>= |(394,103)!534| 0.0))
(assert (>= |(113,98)!535|
    (+ (* (/ 1.0 24.0) 1.0 1.0) (* (/ 23.0 24.0) 1.0 |(397,98)!536|))))
(assert (>= |(113,98)!535| 0.0))
(assert (>= |(397,98)!536| (* 1.0 |(71,90)!462| |(398,98)!537|)))
(assert (>= |(397,98)!536| 0.0))
(assert (>= |(398,98)!537| (* 1.0 |(104,93)!538| 1.0)))
(assert (>= |(398,98)!537| 0.0))
(assert (>= |(104,93)!538|
    (+ (* (/ 1.0 25.0) 1.0 1.0) (* (/ 24.0 25.0) 1.0 |(401,93)!539|))))
(assert (>= |(104,93)!538| 0.0))
(assert (>= |(401,93)!539| (* 1.0 |(74,85)!465| |(402,93)!540|)))
(assert (>= |(401,93)!539| 0.0))
(assert (>= |(402,93)!540| (* 1.0 |(95,88)!541| 1.0)))
(assert (>= |(402,93)!540| 0.0))
(assert (>= |(95,88)!541|
    (+ (* (/ 1.0 26.0) 1.0 1.0) (* (/ 25.0 26.0) 1.0 |(405,88)!542|))))
(assert (>= |(95,88)!541| 0.0))
(assert (>= |(405,88)!542| (* 1.0 |(77,82)!468| |(406,88)!543|)))
(assert (>= |(405,88)!542| 0.0))
(assert (>= |(406,88)!543| (* 1.0 |(88,83)!544| 1.0)))
(assert (>= |(406,88)!543| 0.0))
(assert (>= |(88,83)!544| (+ (* (/ 1.0 2.0) 1.0 1.0) (* (/ 1.0 2.0) 1.0 |(89,83)!545|))))
(assert (>= |(88,83)!544| 0.0))
(assert (>= |(89,83)!545| (* 1.0 |(5,200)!399| |(306,83)!546|)))
(assert (>= |(89,83)!545| 0.0))
(assert (>= |(306,83)!546| (* 1.0 |(302,203)!472| 1.0)))
(assert (>= |(306,83)!546| 0.0))
(assert (>= |(314,203)!475| (* 1.0 |(293,198)!400| 1.0)))
(assert (>= |(314,203)!475| 0.0))
(assert (>= |(87,85)!469| (* 1.0 |(88,83)!544| 1.0)))
(assert (>= |(87,85)!469| 0.0))
(assert (>= |(94,90)!466| (* 1.0 |(95,88)!541| 1.0)))
(assert (>= |(94,90)!466| 0.0))
(assert (>= |(103,95)!463| (* 1.0 |(104,93)!538| 1.0)))
(assert (>= |(103,95)!463| 0.0))
(assert (>= |(112,100)!460| (* 1.0 |(113,98)!535| 1.0)))
(assert (>= |(112,100)!460| 0.0))
(assert (>= |(121,105)!457| (* 1.0 |(122,103)!532| 1.0)))
(assert (>= |(121,105)!457| 0.0))
(assert (>= |(130,110)!454| (* 1.0 |(131,108)!529| 1.0)))
(assert (>= |(130,110)!454| 0.0))
(assert (>= |(139,115)!451| (* 1.0 |(140,113)!526| 1.0)))
(assert (>= |(139,115)!451| 0.0))
(assert (>= |(148,120)!448| (* 1.0 |(149,118)!523| 1.0)))
(assert (>= |(148,120)!448| 0.0))
(assert (>= |(157,125)!445| (* 1.0 |(158,123)!520| 1.0)))
(assert (>= |(157,125)!445| 0.0))
(assert (>= |(166,130)!442| (* 1.0 |(167,128)!517| 1.0)))
(assert (>= |(166,130)!442| 0.0))
(assert (>= |(175,135)!439| (* 1.0 |(176,133)!514| 1.0)))
(assert (>= |(175,135)!439| 0.0))
(assert (>= |(184,140)!436| (* 1.0 |(185,138)!511| 1.0)))
(assert (>= |(184,140)!436| 0.0))
(assert (>= |(193,145)!433| (* 1.0 |(194,143)!508| 1.0)))
(assert (>= |(193,145)!433| 0.0))
(assert (>= |(202,150)!430| (* 1.0 |(203,148)!505| 1.0)))
(assert (>= |(202,150)!430| 0.0))
(assert (>= |(211,155)!427| (* 1.0 |(212,153)!502| 1.0)))
(assert (>= |(211,155)!427| 0.0))
(assert (>= |(220,160)!424| (* 1.0 |(221,158)!499| 1.0)))
(assert (>= |(220,160)!424| 0.0))
(assert (>= |(229,165)!421| (* 1.0 |(230,163)!496| 1.0)))
(assert (>= |(229,165)!421| 0.0))
(assert (>= |(238,170)!418| (* 1.0 |(239,168)!493| 1.0)))
(assert (>= |(238,170)!418| 0.0))
(assert (>= |(247,175)!415| (* 1.0 |(248,173)!490| 1.0)))
(assert (>= |(247,175)!415| 0.0))
(assert (>= |(256,180)!412| (* 1.0 |(257,178)!487| 1.0)))
(assert (>= |(256,180)!412| 0.0))
(assert (>= |(265,185)!409| (* 1.0 |(266,183)!484| 1.0)))
(assert (>= |(265,185)!409| 0.0))
(assert (>= |(274,190)!406| (* 1.0 |(275,188)!481| 1.0)))
(assert (>= |(274,190)!406| 0.0))
(assert (>= |(318,198)!403| (* 1.0 |(284,193)!478| 1.0)))
(assert (>= |(318,198)!403| 0.0))
(assert (= |(283,200)!251| 0.0))
(assert (= |(274,200)!252| 0.0))
(assert (= |(265,200)!253| 0.0))
(assert (= |(256,200)!254| 0.0))
(assert (= |(247,200)!255| 0.0))
(assert (= |(238,200)!256| 0.0))
(assert (= |(229,200)!257| 0.0))
(assert (= |(220,200)!258| 0.0))
(assert (= |(211,200)!259| 0.0))
(assert (= |(202,200)!260| 0.0))
(assert (= |(193,200)!261| 0.0))
(assert (= |(184,200)!262| 0.0))
(assert (= |(175,200)!263| 0.0))
(assert (= |(166,200)!264| 0.0))
(assert (= |(157,200)!265| 0.0))
(assert (= |(148,200)!266| 0.0))
(assert (= |(139,200)!267| 0.0))
(assert (= |(130,200)!268| 0.0))
(assert (= |(121,200)!269| 0.0))
(assert (= |(112,200)!270| 0.0))
(assert (= |(103,200)!271| 0.0))
(assert (= |(94,200)!272| 0.0))
(assert (= |(87,200)!273| 0.0))
(assert (= |(306,200)!274| 0.0))
(assert (>= |(89,200)!275| (* 1.0 |(5,200)!399| 0.0)))
(assert (>= |(89,200)!275| 0.0))
(assert (>= |(88,200)!276| (* (/ 1.0 2.0) 1.0 |(89,200)!275|)))
(assert (>= |(88,200)!276| 0.0))
(assert (= |(406,200)!277| 0.0))
(assert (>= |(405,200)!278| (* 1.0 |(77,82)!468| 0.0)))
(assert (>= |(405,200)!278| 0.0))
(assert (>= |(95,200)!279| (* (/ 25.0 26.0) 1.0 |(405,200)!278|)))
(assert (>= |(95,200)!279| 0.0))
(assert (= |(402,200)!280| 0.0))
(assert (>= |(401,200)!281| (* 1.0 |(74,85)!465| 0.0)))
(assert (>= |(401,200)!281| 0.0))
(assert (>= |(104,200)!282| (* (/ 24.0 25.0) 1.0 |(401,200)!281|)))
(assert (>= |(104,200)!282| 0.0))
(assert (= |(398,200)!283| 0.0))
(assert (>= |(397,200)!284| (* 1.0 |(71,90)!462| 0.0)))
(assert (>= |(397,200)!284| 0.0))
(assert (>= |(113,200)!285| (* (/ 23.0 24.0) 1.0 |(397,200)!284|)))
(assert (>= |(113,200)!285| 0.0))
(assert (= |(394,200)!286| 0.0))
(assert (>= |(393,200)!287| (* 1.0 |(68,95)!459| 0.0)))
(assert (>= |(393,200)!287| 0.0))
(assert (>= |(122,200)!288| (* (/ 22.0 23.0) 1.0 |(393,200)!287|)))
(assert (>= |(122,200)!288| 0.0))
(assert (= |(390,200)!289| 0.0))
(assert (>= |(389,200)!290| (* 1.0 |(65,100)!456| 0.0)))
(assert (>= |(389,200)!290| 0.0))
(assert (>= |(131,200)!291| (* (/ 21.0 22.0) 1.0 |(389,200)!290|)))
(assert (>= |(131,200)!291| 0.0))
(assert (= |(386,200)!292| 0.0))
(assert (>= |(385,200)!293| (* 1.0 |(62,105)!453| 0.0)))
(assert (>= |(385,200)!293| 0.0))
(assert (>= |(140,200)!294| (* (/ 20.0 21.0) 1.0 |(385,200)!293|)))
(assert (>= |(140,200)!294| 0.0))
(assert (= |(382,200)!295| 0.0))
(assert (>= |(381,200)!296| (* 1.0 |(59,110)!450| 0.0)))
(assert (>= |(381,200)!296| 0.0))
(assert (>= |(149,200)!297| (* (/ 19.0 20.0) 1.0 |(381,200)!296|)))
(assert (>= |(149,200)!297| 0.0))
(assert (= |(378,200)!298| 0.0))
(assert (>= |(377,200)!299| (* 1.0 |(56,115)!447| 0.0)))
(assert (>= |(377,200)!299| 0.0))
(assert (>= |(158,200)!300| (* (/ 18.0 19.0) 1.0 |(377,200)!299|)))
(assert (>= |(158,200)!300| 0.0))
(assert (= |(374,200)!301| 0.0))
(assert (>= |(373,200)!302| (* 1.0 |(53,120)!444| 0.0)))
(assert (>= |(373,200)!302| 0.0))
(assert (>= |(167,200)!303| (* (/ 17.0 18.0) 1.0 |(373,200)!302|)))
(assert (>= |(167,200)!303| 0.0))
(assert (= |(370,200)!304| 0.0))
(assert (>= |(369,200)!305| (* 1.0 |(50,125)!441| 0.0)))
(assert (>= |(369,200)!305| 0.0))
(assert (>= |(176,200)!306| (* (/ 16.0 17.0) 1.0 |(369,200)!305|)))
(assert (>= |(176,200)!306| 0.0))
(assert (= |(366,200)!307| 0.0))
(assert (>= |(365,200)!308| (* 1.0 |(47,130)!438| 0.0)))
(assert (>= |(365,200)!308| 0.0))
(assert (>= |(185,200)!309| (* (/ 15.0 16.0) 1.0 |(365,200)!308|)))
(assert (>= |(185,200)!309| 0.0))
(assert (= |(362,200)!310| 0.0))
(assert (>= |(361,200)!311| (* 1.0 |(44,135)!435| 0.0)))
(assert (>= |(361,200)!311| 0.0))
(assert (>= |(194,200)!312| (* (/ 14.0 15.0) 1.0 |(361,200)!311|)))
(assert (>= |(194,200)!312| 0.0))
(assert (= |(358,200)!313| 0.0))
(assert (>= |(357,200)!314| (* 1.0 |(41,140)!432| 0.0)))
(assert (>= |(357,200)!314| 0.0))
(assert (>= |(203,200)!315| (* (/ 13.0 14.0) 1.0 |(357,200)!314|)))
(assert (>= |(203,200)!315| 0.0))
(assert (= |(354,200)!316| 0.0))
(assert (>= |(353,200)!317| (* 1.0 |(38,145)!429| 0.0)))
(assert (>= |(353,200)!317| 0.0))
(assert (>= |(212,200)!318| (* (/ 12.0 13.0) 1.0 |(353,200)!317|)))
(assert (>= |(212,200)!318| 0.0))
(assert (= |(350,200)!319| 0.0))
(assert (>= |(349,200)!320| (* 1.0 |(35,150)!426| 0.0)))
(assert (>= |(349,200)!320| 0.0))
(assert (>= |(221,200)!321| (* (/ 11.0 12.0) 1.0 |(349,200)!320|)))
(assert (>= |(221,200)!321| 0.0))
(assert (= |(346,200)!322| 0.0))
(assert (>= |(345,200)!323| (* 1.0 |(32,155)!423| 0.0)))
(assert (>= |(345,200)!323| 0.0))
(assert (>= |(230,200)!324| (* (/ 10.0 11.0) 1.0 |(345,200)!323|)))
(assert (>= |(230,200)!324| 0.0))
(assert (= |(342,200)!325| 0.0))
(assert (>= |(341,200)!326| (* 1.0 |(29,160)!420| 0.0)))
(assert (>= |(341,200)!326| 0.0))
(assert (>= |(239,200)!327| (* (/ 9.0 10.0) 1.0 |(341,200)!326|)))
(assert (>= |(239,200)!327| 0.0))
(assert (= |(338,200)!328| 0.0))
(assert (>= |(337,200)!329| (* 1.0 |(26,165)!417| 0.0)))
(assert (>= |(337,200)!329| 0.0))
(assert (>= |(248,200)!330| (* (/ 8.0 9.0) 1.0 |(337,200)!329|)))
(assert (>= |(248,200)!330| 0.0))
(assert (= |(334,200)!331| 0.0))
(assert (>= |(333,200)!332| (* 1.0 |(23,170)!414| 0.0)))
(assert (>= |(333,200)!332| 0.0))
(assert (>= |(257,200)!333| (* (/ 7.0 8.0) 1.0 |(333,200)!332|)))
(assert (>= |(257,200)!333| 0.0))
(assert (= |(330,200)!334| 0.0))
(assert (>= |(329,200)!335| (* 1.0 |(20,175)!411| 0.0)))
(assert (>= |(329,200)!335| 0.0))
(assert (>= |(266,200)!336| (* (/ 6.0 7.0) 1.0 |(329,200)!335|)))
(assert (>= |(266,200)!336| 0.0))
(assert (= |(326,200)!337| 0.0))
(assert (>= |(325,200)!338| (* 1.0 |(17,180)!408| 0.0)))
(assert (>= |(325,200)!338| 0.0))
(assert (>= |(275,200)!339| (* (/ 5.0 6.0) 1.0 |(325,200)!338|)))
(assert (>= |(275,200)!339| 0.0))
(assert (= |(322,200)!340| 0.0))
(assert (>= |(321,200)!341| (* 1.0 |(14,185)!405| 0.0)))
(assert (>= |(321,200)!341| 0.0))
(assert (>= |(284,200)!342| (* (/ 4.0 5.0) 1.0 |(321,200)!341|)))
(assert (>= |(284,200)!342| 0.0))
(assert (= |(318,200)!343| 0.0))
(assert (>= |(317,200)!344| (* 1.0 |(11,190)!402| 0.0)))
(assert (>= |(317,200)!344| 0.0))
(assert (>= |(293,200)!345| (* (/ 3.0 4.0) 1.0 |(317,200)!344|)))
(assert (>= |(293,200)!345| 0.0))
(assert (= |(314,200)!346| 0.0))
(assert (>= |(313,200)!347| (* 1.0 |(8,195)!474| 0.0)))
(assert (>= |(313,200)!347| 0.0))
(assert (>= |(302,200)!348| (* (/ 2.0 3.0) 1.0 |(313,200)!347|)))
(assert (>= |(302,200)!348| 0.0))
(assert (= |(410,200)!349| 0.0))
(assert (>= |(409,200)!350| (* 1.0 |(5,200)!399| 0.0)))
(assert (>= |(409,200)!350| 0.0))
(assert (>= |(77,200)!351| (* (/ 1.0 2.0) 1.0 |(409,200)!350|)))
(assert (>= |(77,200)!351| 0.0))
(assert (>= |(76,200)!352| (* 1.0 |(77,82)!468| 0.0)))
(assert (>= |(76,200)!352| 0.0))
(assert (>= |(74,200)!353| (* (/ 25.0 26.0) 1.0 |(76,200)!352|)))
(assert (>= |(74,200)!353| 0.0))
(assert (>= |(73,200)!354| (* 1.0 |(74,85)!465| 0.0)))
(assert (>= |(73,200)!354| 0.0))
(assert (>= |(71,200)!355| (* (/ 24.0 25.0) 1.0 |(73,200)!354|)))
(assert (>= |(71,200)!355| 0.0))
(assert (>= |(70,200)!356| (* 1.0 |(71,90)!462| 0.0)))
(assert (>= |(70,200)!356| 0.0))
(assert (>= |(68,200)!357| (* (/ 23.0 24.0) 1.0 |(70,200)!356|)))
(assert (>= |(68,200)!357| 0.0))
(assert (>= |(67,200)!358| (* 1.0 |(68,95)!459| 0.0)))
(assert (>= |(67,200)!358| 0.0))
(assert (>= |(65,200)!359| (* (/ 22.0 23.0) 1.0 |(67,200)!358|)))
(assert (>= |(65,200)!359| 0.0))
(assert (>= |(64,200)!360| (* 1.0 |(65,100)!456| 0.0)))
(assert (>= |(64,200)!360| 0.0))
(assert (>= |(62,200)!361| (* (/ 21.0 22.0) 1.0 |(64,200)!360|)))
(assert (>= |(62,200)!361| 0.0))
(assert (>= |(61,200)!362| (* 1.0 |(62,105)!453| 0.0)))
(assert (>= |(61,200)!362| 0.0))
(assert (>= |(59,200)!363| (* (/ 20.0 21.0) 1.0 |(61,200)!362|)))
(assert (>= |(59,200)!363| 0.0))
(assert (>= |(58,200)!364| (* 1.0 |(59,110)!450| 0.0)))
(assert (>= |(58,200)!364| 0.0))
(assert (>= |(56,200)!365| (* (/ 19.0 20.0) 1.0 |(58,200)!364|)))
(assert (>= |(56,200)!365| 0.0))
(assert (>= |(55,200)!366| (* 1.0 |(56,115)!447| 0.0)))
(assert (>= |(55,200)!366| 0.0))
(assert (>= |(53,200)!367| (* (/ 18.0 19.0) 1.0 |(55,200)!366|)))
(assert (>= |(53,200)!367| 0.0))
(assert (>= |(52,200)!368| (* 1.0 |(53,120)!444| 0.0)))
(assert (>= |(52,200)!368| 0.0))
(assert (>= |(50,200)!369| (* (/ 17.0 18.0) 1.0 |(52,200)!368|)))
(assert (>= |(50,200)!369| 0.0))
(assert (>= |(49,200)!370| (* 1.0 |(50,125)!441| 0.0)))
(assert (>= |(49,200)!370| 0.0))
(assert (>= |(47,200)!371| (* (/ 16.0 17.0) 1.0 |(49,200)!370|)))
(assert (>= |(47,200)!371| 0.0))
(assert (>= |(46,200)!372| (* 1.0 |(47,130)!438| 0.0)))
(assert (>= |(46,200)!372| 0.0))
(assert (>= |(44,200)!373| (* (/ 15.0 16.0) 1.0 |(46,200)!372|)))
(assert (>= |(44,200)!373| 0.0))
(assert (>= |(43,200)!374| (* 1.0 |(44,135)!435| 0.0)))
(assert (>= |(43,200)!374| 0.0))
(assert (>= |(41,200)!375| (* (/ 14.0 15.0) 1.0 |(43,200)!374|)))
(assert (>= |(41,200)!375| 0.0))
(assert (>= |(40,200)!376| (* 1.0 |(41,140)!432| 0.0)))
(assert (>= |(40,200)!376| 0.0))
(assert (>= |(38,200)!377| (* (/ 13.0 14.0) 1.0 |(40,200)!376|)))
(assert (>= |(38,200)!377| 0.0))
(assert (>= |(37,200)!378| (* 1.0 |(38,145)!429| 0.0)))
(assert (>= |(37,200)!378| 0.0))
(assert (>= |(35,200)!379| (* (/ 12.0 13.0) 1.0 |(37,200)!378|)))
(assert (>= |(35,200)!379| 0.0))
(assert (>= |(34,200)!380| (* 1.0 |(35,150)!426| 0.0)))
(assert (>= |(34,200)!380| 0.0))
(assert (>= |(32,200)!381| (* (/ 11.0 12.0) 1.0 |(34,200)!380|)))
(assert (>= |(32,200)!381| 0.0))
(assert (>= |(31,200)!382| (* 1.0 |(32,155)!423| 0.0)))
(assert (>= |(31,200)!382| 0.0))
(assert (>= |(29,200)!383| (* (/ 10.0 11.0) 1.0 |(31,200)!382|)))
(assert (>= |(29,200)!383| 0.0))
(assert (>= |(28,200)!384| (* 1.0 |(29,160)!420| 0.0)))
(assert (>= |(28,200)!384| 0.0))
(assert (>= |(26,200)!385| (* (/ 9.0 10.0) 1.0 |(28,200)!384|)))
(assert (>= |(26,200)!385| 0.0))
(assert (>= |(25,200)!386| (* 1.0 |(26,165)!417| 0.0)))
(assert (>= |(25,200)!386| 0.0))
(assert (>= |(23,200)!387| (* (/ 8.0 9.0) 1.0 |(25,200)!386|)))
(assert (>= |(23,200)!387| 0.0))
(assert (>= |(22,200)!388| (* 1.0 |(23,170)!414| 0.0)))
(assert (>= |(22,200)!388| 0.0))
(assert (>= |(20,200)!389| (* (/ 7.0 8.0) 1.0 |(22,200)!388|)))
(assert (>= |(20,200)!389| 0.0))
(assert (>= |(19,200)!390| (* 1.0 |(20,175)!411| 0.0)))
(assert (>= |(19,200)!390| 0.0))
(assert (>= |(17,200)!391| (* (/ 6.0 7.0) 1.0 |(19,200)!390|)))
(assert (>= |(17,200)!391| 0.0))
(assert (>= |(16,200)!392| (* 1.0 |(17,180)!408| 0.0)))
(assert (>= |(16,200)!392| 0.0))
(assert (>= |(14,200)!393| (* (/ 5.0 6.0) 1.0 |(16,200)!392|)))
(assert (>= |(14,200)!393| 0.0))
(assert (>= |(13,200)!394| (* 1.0 |(14,185)!405| 0.0)))
(assert (>= |(13,200)!394| 0.0))
(assert (>= |(11,200)!395| (* (/ 4.0 5.0) 1.0 |(13,200)!394|)))
(assert (>= |(11,200)!395| 0.0))
(assert (>= |(10,200)!396| (* 1.0 |(11,190)!402| 0.0)))
(assert (>= |(10,200)!396| 0.0))
(assert (>= |(8,200)!397| (* (/ 3.0 4.0) 1.0 |(10,200)!396|)))
(assert (>= |(8,200)!397| 0.0))
(assert (>= |(7,200)!398| (* 1.0 |(8,195)!474| |(292,200)!250|)))
(assert (>= |(7,200)!398| 0.0))
(assert (>= |(5,200)!399| (+ (* (/ 1.0 3.0) 1.0 1.0) (* (/ 2.0 3.0) 1.0 |(7,200)!398|))))
(assert (>= |(5,200)!399| 0.0))

(check-sat)
(exit)
